
  22   10
  10   10   10   10   10   10   10   10   10   10

   0   0   0   0   0   0   0   0   0   0   0   2 2 11 
   5  10  10  10  10  10  10  10  10  10  10   1 3 
   2  10  10  10  10  10  10  10  10  10  10   1 4 
   2  10  10  10  10  10  10  10  10  10  10   1 5 
   9  10  10  10  10  10  10  10  10  10  10   1 6 
   3  10  10  10  10  10  10  10  10  10  10   1 7 
   4  10  10  10  10  10  10  10  10  10  10   1 8 
   6  10  10  10  10  10  10  10  10  10  10   1 9 
   1  10  10  10  10  10  10  10  10  10  10   1 10 
   5  10  10  10  10  10  10  10  10  10  10   1 12 
  10  10  10  10  10  10  10  10  10  10  10   1 12 
   6  10  10  10  10  10  10  10  10  10  10   1 13 
   1  10  10  10  10  10  10  10  10  10  10   1 14 
   2  10  10  10  10  10  10  10  10  10  10   2 21 15 
   2  10  10  10  10  10  10  10  10  10  10   1 16 
   1  10  10  10  10  10  10  10  10  10  10   1 17 
   6  10  10  10  10  10  10  10  10  10  10   1 18 
   7  10  10  10  10  10  10  10  10  10  10   1 19 
   1  10  10  10  10  10  10  10  10  10  10   1 20 
   8  10  10  10  10  10  10  10  10  10  10   1 22
  10  10  10  10  10  10  10  10  10  10  10   1 22
   0   0   0   0   0   0   0   0   0   0   0   0 
